GRAPH IS : 
0 0 0 0 0 0 0 0 0 0 0 0 0 0 0 0 0 0 0 0 0 0 0 0 0 0 0 0 0 0 0 0 0 0 0 0 0 0 0 0 0 0 0 0 0 0 0 
0 0 1 0 1 0 0 1 0 1 0 0 0 1 0 1 0 0 1 0 1 0 0 0 0 1 0 1 0 0 1 0 1 0 0 0 1 0 1 0 0 1 0 1 0 0 0 
0 0 0 1 0 0 1 0 1 0 0 0 1 0 1 0 0 1 0 1 0 0 0 0 1 0 1 0 0 1 0 1 0 0 0 1 0 1 0 0 1 0 1 0 0 0 0 
0 0 0 0 0 1 0 1 0 0 1 0 0 1 0 0 1 0 1 0 0 1 0 0 0 1 0 0 1 0 1 0 0 1 0 0 1 0 0 1 0 1 0 0 1 0 0 
0 0 0 0 0 1 1 0 0 0 1 0 1 0 0 0 1 1 0 0 0 1 0 0 1 0 0 0 1 1 0 0 0 1 0 1 0 0 0 1 1 0 0 0 1 0 0 
0 0 0 0 0 0 0 0 1 1 0 0 0 0 1 1 0 0 0 1 1 0 0 0 0 0 1 1 0 0 0 1 1 0 0 0 0 1 1 0 0 0 1 1 0 0 0 
0 0 0 0 0 0 0 0 0 0 0 1 0 1 0 1 0 0 0 0 0 0 1 0 0 1 0 1 0 0 0 0 0 0 1 0 1 0 1 0 0 0 0 0 0 1 0 
0 0 0 0 0 0 0 0 0 0 0 1 1 0 1 0 0 0 0 0 0 0 1 0 1 0 1 0 0 0 0 0 0 0 1 1 0 1 0 0 0 0 0 0 0 1 0 
0 0 0 0 0 0 0 0 0 0 0 1 0 1 0 0 1 0 0 0 0 0 1 0 0 1 0 0 1 0 0 0 0 0 1 0 1 0 0 1 0 0 0 0 0 1 0 
0 0 0 0 0 0 0 0 0 0 0 1 1 0 0 0 1 0 0 0 0 0 1 0 1 0 0 0 1 0 0 0 0 0 1 1 0 0 0 1 0 0 0 0 0 1 0 
0 0 0 0 0 0 0 0 0 0 0 1 0 0 1 1 0 0 0 0 0 0 1 0 0 0 1 1 0 0 0 0 0 0 1 0 0 1 1 0 0 0 0 0 0 1 0 
0 0 0 0 0 0 0 0 0 0 0 0 0 0 0 0 0 1 1 1 1 1 0 0 0 0 0 0 0 1 1 1 1 1 0 0 0 0 0 0 1 1 1 1 1 0 0 
0 0 0 0 0 0 0 0 0 0 0 0 0 0 0 0 0 0 0 0 0 0 0 1 0 1 0 1 0 0 1 0 1 0 0 0 0 0 0 0 0 0 0 0 0 0 1 
0 0 0 0 0 0 0 0 0 0 0 0 0 0 0 0 0 0 0 0 0 0 0 1 1 0 1 0 0 1 0 1 0 0 0 0 0 0 0 0 0 0 0 0 0 0 1 
0 0 0 0 0 0 0 0 0 0 0 0 0 0 0 0 0 0 0 0 0 0 0 1 0 1 0 0 1 0 1 0 0 1 0 0 0 0 0 0 0 0 0 0 0 0 1 
0 0 0 0 0 0 0 0 0 0 0 0 0 0 0 0 0 0 0 0 0 0 0 1 1 0 0 0 1 1 0 0 0 1 0 0 0 0 0 0 0 0 0 0 0 0 1 
0 0 0 0 0 0 0 0 0 0 0 0 0 0 0 0 0 0 0 0 0 0 0 1 0 0 1 1 0 0 0 1 1 0 0 0 0 0 0 0 0 0 0 0 0 0 1 
0 0 0 0 0 0 0 0 0 0 0 0 0 0 0 0 0 0 0 0 0 0 0 1 0 1 0 1 0 0 0 0 0 0 1 0 0 0 0 0 0 0 0 0 0 0 1 
0 0 0 0 0 0 0 0 0 0 0 0 0 0 0 0 0 0 0 0 0 0 0 1 1 0 1 0 0 0 0 0 0 0 1 0 0 0 0 0 0 0 0 0 0 0 1 
0 0 0 0 0 0 0 0 0 0 0 0 0 0 0 0 0 0 0 0 0 0 0 1 0 1 0 0 1 0 0 0 0 0 1 0 0 0 0 0 0 0 0 0 0 0 1 
0 0 0 0 0 0 0 0 0 0 0 0 0 0 0 0 0 0 0 0 0 0 0 1 1 0 0 0 1 0 0 0 0 0 1 0 0 0 0 0 0 0 0 0 0 0 1 
0 0 0 0 0 0 0 0 0 0 0 0 0 0 0 0 0 0 0 0 0 0 0 1 0 0 1 1 0 0 0 0 0 0 1 0 0 0 0 0 0 0 0 0 0 0 1 
0 0 0 0 0 0 0 0 0 0 0 0 0 0 0 0 0 0 0 0 0 0 0 1 0 0 0 0 0 1 1 1 1 1 0 0 0 0 0 0 0 0 0 0 0 0 1 
0 0 0 0 0 0 0 0 0 0 0 0 0 0 0 0 0 0 0 0 0 0 0 0 0 0 0 0 0 0 0 0 0 0 0 1 1 1 1 1 1 1 1 1 1 1 0 
0 0 0 0 0 0 0 0 0 0 0 0 0 0 0 0 0 0 0 0 0 0 0 0 0 0 0 0 0 0 0 0 0 0 0 0 0 0 0 0 0 0 0 0 0 0 0 
0 0 0 0 0 0 0 0 0 0 0 0 0 0 0 0 0 0 0 0 0 0 0 0 0 0 0 0 0 0 0 0 0 0 0 0 0 0 0 0 0 0 0 0 0 0 0 
0 0 0 0 0 0 0 0 0 0 0 0 0 0 0 0 0 0 0 0 0 0 0 0 0 0 0 0 0 0 0 0 0 0 0 0 0 0 0 0 0 0 0 0 0 0 0 
0 0 0 0 0 0 0 0 0 0 0 0 0 0 0 0 0 0 0 0 0 0 0 0 0 0 0 0 0 0 0 0 0 0 0 0 0 0 0 0 0 0 0 0 0 0 0 
0 0 0 0 0 0 0 0 0 0 0 0 0 0 0 0 0 0 0 0 0 0 0 0 0 0 0 0 0 0 0 0 0 0 0 0 0 0 0 0 0 0 0 0 0 0 0 
0 0 0 0 0 0 0 0 0 0 0 0 0 0 0 0 0 0 0 0 0 0 0 0 0 0 0 0 0 0 0 0 0 0 0 0 0 0 0 0 0 0 0 0 0 0 0 
0 0 0 0 0 0 0 0 0 0 0 0 0 0 0 0 0 0 0 0 0 0 0 0 0 0 0 0 0 0 0 0 0 0 0 0 0 0 0 0 0 0 0 0 0 0 0 
0 0 0 0 0 0 0 0 0 0 0 0 0 0 0 0 0 0 0 0 0 0 0 0 0 0 0 0 0 0 0 0 0 0 0 0 0 0 0 0 0 0 0 0 0 0 0 
0 0 0 0 0 0 0 0 0 0 0 0 0 0 0 0 0 0 0 0 0 0 0 0 0 0 0 0 0 0 0 0 0 0 0 0 0 0 0 0 0 0 0 0 0 0 0 
0 0 0 0 0 0 0 0 0 0 0 0 0 0 0 0 0 0 0 0 0 0 0 0 0 0 0 0 0 0 0 0 0 0 0 0 0 0 0 0 0 0 0 0 0 0 0 
0 0 0 0 0 0 0 0 0 0 0 0 0 0 0 0 0 0 0 0 0 0 0 0 0 0 0 0 0 0 0 0 0 0 0 0 0 0 0 0 0 0 0 0 0 0 0 
0 0 0 0 0 0 0 0 0 0 0 0 0 0 0 0 0 0 0 0 0 0 0 0 0 0 0 0 0 0 0 0 0 0 0 0 0 0 0 0 0 0 0 0 0 0 0 
0 0 0 0 0 0 0 0 0 0 0 0 0 0 0 0 0 0 0 0 0 0 0 0 0 0 0 0 0 0 0 0 0 0 0 0 0 0 0 0 0 0 0 0 0 0 0 
0 0 0 0 0 0 0 0 0 0 0 0 0 0 0 0 0 0 0 0 0 0 0 0 0 0 0 0 0 0 0 0 0 0 0 0 0 0 0 0 0 0 0 0 0 0 0 
0 0 0 0 0 0 0 0 0 0 0 0 0 0 0 0 0 0 0 0 0 0 0 0 0 0 0 0 0 0 0 0 0 0 0 0 0 0 0 0 0 0 0 0 0 0 0 
0 0 0 0 0 0 0 0 0 0 0 0 0 0 0 0 0 0 0 0 0 0 0 0 0 0 0 0 0 0 0 0 0 0 0 0 0 0 0 0 0 0 0 0 0 0 0 
0 0 0 0 0 0 0 0 0 0 0 0 0 0 0 0 0 0 0 0 0 0 0 0 0 0 0 0 0 0 0 0 0 0 0 0 0 0 0 0 0 0 0 0 0 0 0 
0 0 0 0 0 0 0 0 0 0 0 0 0 0 0 0 0 0 0 0 0 0 0 0 0 0 0 0 0 0 0 0 0 0 0 0 0 0 0 0 0 0 0 0 0 0 0 
0 0 0 0 0 0 0 0 0 0 0 0 0 0 0 0 0 0 0 0 0 0 0 0 0 0 0 0 0 0 0 0 0 0 0 0 0 0 0 0 0 0 0 0 0 0 0 
0 0 0 0 0 0 0 0 0 0 0 0 0 0 0 0 0 0 0 0 0 0 0 0 0 0 0 0 0 0 0 0 0 0 0 0 0 0 0 0 0 0 0 0 0 0 0 
0 0 0 0 0 0 0 0 0 0 0 0 0 0 0 0 0 0 0 0 0 0 0 0 0 0 0 0 0 0 0 0 0 0 0 0 0 0 0 0 0 0 0 0 0 0 0 
0 0 0 0 0 0 0 0 0 0 0 0 0 0 0 0 0 0 0 0 0 0 0 0 0 0 0 0 0 0 0 0 0 0 0 0 0 0 0 0 0 0 0 0 0 0 0 
0 0 0 0 0 0 0 0 0 0 0 0 0 0 0 0 0 0 0 0 0 0 0 0 0 0 0 0 0 0 0 0 0 0 0 0 0 0 0 0 0 0 0 0 0 0 0 




----------------------------

EPOCH: 0 MAX:  -24.468085106    AVG:  -44.005319149
EPOCH: 1 MAX:  -24.468085106    AVG:  -40.707446809
EPOCH: 2 MAX:  -24.468085106    AVG:  -36.101063830
EPOCH: 3 MAX:  -24.468085106    AVG:  -31.297872340
EPOCH: 4 MAX:  -23.404255319    AVG:  -28.335106383
EPOCH: 5 MAX:  -23.404255319    AVG:  -25.750000000
EPOCH: 6 MAX:  -22.340425532    AVG:  -24.468085106
EPOCH: 7 MAX:  -22.340425532    AVG:  -23.898936170
EPOCH: 8 MAX:  -21.276595745    AVG:  -23.356382979
EPOCH: 9 MAX:  -21.276595745    AVG:  -23.069148936
EPOCH: 10 MAX:  -21.276595745    AVG:  -22.755319149
EPOCH: 11 MAX:  -18.085106383    AVG:  -22.202127660
EPOCH: 12 MAX:  -18.085106383    AVG:  -21.946808511
EPOCH: 13 MAX:  -18.085106383    AVG:  -21.468085106
EPOCH: 14 MAX:  -17.021276596    AVG:  -20.861702128
EPOCH: 15 MAX:  -17.021276596    AVG:  -20.281914894
EPOCH: 16 MAX:  -17.021276596    AVG:  -19.361702128
EPOCH: 17 MAX:  -17.021276596    AVG:  -18.324468085
EPOCH: 18 MAX:  -17.021276596    AVG:  -17.707446809
EPOCH: 19 MAX:  -15.957446809    AVG:  -17.239361702
EPOCH: 20 MAX:  -15.957446809    AVG:  -16.962765957
EPOCH: 21 MAX:  -15.957446809    AVG:  -16.893617021
EPOCH: 22 MAX:  -15.957446809    AVG:  -16.611702128
EPOCH: 23 MAX:  -15.957446809    AVG:  -15.994680851
EPOCH: 24 MAX:  -15.957446809    AVG:  -15.957446809
EPOCH: 25 MAX:  -15.957446809    AVG:  -15.957446809
EPOCH: 26 MAX:  -15.957446809    AVG:  -15.957446809
EPOCH: 27 MAX:  -15.957446809    AVG:  -15.957446809
EPOCH: 28 MAX:  -15.957446809    AVG:  -15.957446809
EPOCH: 29 MAX:  -14.893617021    AVG:  -15.946808511
EPOCH: 30 MAX:  -14.893617021    AVG:  -15.893617021
EPOCH: 31 MAX:  -14.893617021    AVG:  -15.797872340
EPOCH: 32 MAX:  -14.893617021    AVG:  -15.441489362
EPOCH: 33 MAX:  -14.893617021    AVG:  -14.893617021
EPOCH: 34 MAX:  -14.893617021    AVG:  -14.893617021
EPOCH: 35 MAX:  -14.893617021    AVG:  -14.893617021
EPOCH: 36 MAX:  -14.893617021    AVG:  -14.893617021
EPOCH: 37 MAX:  -14.893617021    AVG:  -14.893617021
EPOCH: 38 MAX:  -14.893617021    AVG:  -14.893617021
EPOCH: 39 MAX:  -14.893617021    AVG:  -14.893617021
EPOCH: 40 MAX:  -14.893617021    AVG:  -14.893617021
EPOCH: 41 MAX:  -14.893617021    AVG:  -14.893617021
EPOCH: 42 MAX:  -14.893617021    AVG:  -14.893617021
EPOCH: 43 MAX:  -14.893617021    AVG:  -14.893617021
EPOCH: 44 MAX:  -14.893617021    AVG:  -14.893617021
EPOCH: 45 MAX:  -14.893617021    AVG:  -14.893617021
EPOCH: 46 MAX:  -14.893617021    AVG:  -14.893617021
EPOCH: 47 MAX:  -14.893617021    AVG:  -14.893617021
EPOCH: 48 MAX:  -14.893617021    AVG:  -14.893617021
EPOCH: 49 MAX:  -14.893617021    AVG:  -14.893617021
EPOCH: 50 MAX:  -14.893617021    AVG:  -14.893617021
EPOCH: 51 MAX:  -14.893617021    AVG:  -14.893617021
EPOCH: 52 MAX:  -14.893617021    AVG:  -14.893617021
EPOCH: 53 MAX:  -14.893617021    AVG:  -14.893617021
EPOCH: 54 MAX:  -14.893617021    AVG:  -14.893617021
EPOCH: 55 MAX:  -14.893617021    AVG:  -14.893617021
EPOCH: 56 MAX:  -14.893617021    AVG:  -14.893617021
EPOCH: 57 MAX:  -14.893617021    AVG:  -14.893617021
EPOCH: 58 MAX:  -14.893617021    AVG:  -14.893617021
EPOCH: 59 MAX:  -14.893617021    AVG:  -14.893617021
EPOCH: 60 MAX:  -14.893617021    AVG:  -14.893617021
EPOCH: 61 MAX:  -14.893617021    AVG:  -14.893617021
EPOCH: 62 MAX:  -14.893617021    AVG:  -14.893617021
EPOCH: 63 MAX:  -14.893617021    AVG:  -14.893617021
EPOCH: 64 MAX:  -14.893617021    AVG:  -14.893617021
EPOCH: 65 MAX:  -14.893617021    AVG:  -14.893617021
EPOCH: 66 MAX:  -14.893617021    AVG:  -14.893617021
EPOCH: 67 MAX:  -14.893617021    AVG:  -14.893617021
EPOCH: 68 MAX:  -14.893617021    AVG:  -14.893617021
EPOCH: 69 MAX:  -14.893617021    AVG:  -14.893617021
EPOCH: 70 MAX:  -14.893617021    AVG:  -14.893617021
EPOCH: 71 MAX:  -14.893617021    AVG:  -14.893617021
EPOCH: 72 MAX:  -14.893617021    AVG:  -14.893617021
EPOCH: 73 MAX:  -14.893617021    AVG:  -14.893617021
EPOCH: 74 MAX:  -14.893617021    AVG:  -14.893617021
EPOCH: 75 MAX:  -14.893617021    AVG:  -14.893617021
EPOCH: 76 MAX:  -14.893617021    AVG:  -14.893617021
EPOCH: 77 MAX:  -14.893617021    AVG:  -14.893617021
EPOCH: 78 MAX:  -14.893617021    AVG:  -14.893617021
EPOCH: 79 MAX:  -14.893617021    AVG:  -14.893617021
EPOCH: 80 MAX:  -14.893617021    AVG:  -14.893617021
EPOCH: 81 MAX:  -14.893617021    AVG:  -14.893617021
EPOCH: 82 MAX:  -14.893617021    AVG:  -14.893617021
EPOCH: 83 MAX:  -14.893617021    AVG:  -14.893617021
EPOCH: 84 MAX:  -14.893617021    AVG:  -14.893617021
EPOCH: 85 MAX:  -14.893617021    AVG:  -14.893617021
EPOCH: 86 MAX:  -14.893617021    AVG:  -14.893617021
EPOCH: 87 MAX:  -14.893617021    AVG:  -14.893617021
EPOCH: 88 MAX:  -14.893617021    AVG:  -14.893617021
EPOCH: 89 MAX:  -14.893617021    AVG:  -14.893617021
EPOCH: 90 MAX:  -14.893617021    AVG:  -14.893617021
EPOCH: 91 MAX:  -14.893617021    AVG:  -14.893617021
EPOCH: 92 MAX:  -14.893617021    AVG:  -14.893617021
EPOCH: 93 MAX:  -14.893617021    AVG:  -14.893617021
EPOCH: 94 MAX:  -14.893617021    AVG:  -14.893617021
EPOCH: 95 MAX:  -14.893617021    AVG:  -14.893617021
EPOCH: 96 MAX:  -14.893617021    AVG:  -14.893617021
EPOCH: 97 MAX:  -14.893617021    AVG:  -14.893617021
EPOCH: 98 MAX:  -14.893617021    AVG:  -14.893617021
EPOCH: 99 MAX:  -14.893617021    AVG:  -14.893617021
HELPER:  ....
EPOCH: 100 MAX:  -4.255319149    AVG:  -14.835106383
EPOCH: 101 MAX:  -4.255319149    AVG:  -14.835106383
EPOCH: 102 MAX:  -4.255319149    AVG:  -14.739361702
EPOCH: 103 MAX:  -4.255319149    AVG:  -14.553191489
EPOCH: 104 MAX:  -4.255319149    AVG:  -14.090425532
EPOCH: 105 MAX:  -4.255319149    AVG:  -12.978723404
EPOCH: 106 MAX:  -4.255319149    AVG:  -10.372340426
EPOCH: 107 MAX:  -4.255319149    AVG:  -8.414893617
EPOCH: 108 MAX:  -4.255319149    AVG:  -6.143617021
EPOCH: 109 MAX:  -4.255319149    AVG:  -5.664893617
EPOCH: 110 MAX:  -4.255319149    AVG:  -5.287234043
EPOCH: 111 MAX:  -4.255319149    AVG:  -5.244680851
EPOCH: 112 MAX:  -4.255319149    AVG:  -5.159574468
EPOCH: 113 MAX:  -4.255319149    AVG:  -4.984042553
EPOCH: 114 MAX:  -4.255319149    AVG:  -4.569148936
EPOCH: 115 MAX:  -4.255319149    AVG:  -4.255319149
EPOCH: 116 MAX:  -4.255319149    AVG:  -4.255319149
EPOCH: 117 MAX:  -4.255319149    AVG:  -4.255319149
EPOCH: 118 MAX:  -4.255319149    AVG:  -4.255319149
EPOCH: 119 MAX:  -4.255319149    AVG:  -4.255319149
EPOCH: 120 MAX:  -4.255319149    AVG:  -4.255319149
EPOCH: 121 MAX:  -4.255319149    AVG:  -4.255319149
EPOCH: 122 MAX:  -4.255319149    AVG:  -4.255319149
EPOCH: 123 MAX:  -4.255319149    AVG:  -4.255319149
EPOCH: 124 MAX:  -4.255319149    AVG:  -4.255319149
EPOCH: 125 MAX:  -4.255319149    AVG:  -4.255319149
EPOCH: 126 MAX:  -4.255319149    AVG:  -4.255319149
EPOCH: 127 MAX:  -4.255319149    AVG:  -4.255319149
EPOCH: 128 MAX:  -4.255319149    AVG:  -4.255319149
EPOCH: 129 MAX:  -4.255319149    AVG:  -4.255319149
EPOCH: 130 MAX:  -4.255319149    AVG:  -4.255319149
EPOCH: 131 MAX:  -4.255319149    AVG:  -4.255319149
EPOCH: 132 MAX:  -4.255319149    AVG:  -4.255319149
EPOCH: 133 MAX:  -4.255319149    AVG:  -4.255319149
EPOCH: 134 MAX:  -4.255319149    AVG:  -4.255319149
EPOCH: 135 MAX:  -4.255319149    AVG:  -4.255319149
EPOCH: 136 MAX:  -4.255319149    AVG:  -4.255319149
EPOCH: 137 MAX:  -4.255319149    AVG:  -4.255319149
EPOCH: 138 MAX:  -4.255319149    AVG:  -4.255319149
EPOCH: 139 MAX:  -4.255319149    AVG:  -4.255319149
EPOCH: 140 MAX:  -4.255319149    AVG:  -4.255319149
EPOCH: 141 MAX:  -4.255319149    AVG:  -4.255319149
EPOCH: 142 MAX:  -4.255319149    AVG:  -4.255319149
EPOCH: 143 MAX:  -4.255319149    AVG:  -4.255319149
EPOCH: 144 MAX:  -4.255319149    AVG:  -4.255319149
EPOCH: 145 MAX:  -4.255319149    AVG:  -4.255319149
EPOCH: 146 MAX:  -4.255319149    AVG:  -4.255319149
EPOCH: 147 MAX:  -4.255319149    AVG:  -4.255319149
EPOCH: 148 MAX:  -4.255319149    AVG:  -4.255319149
EPOCH: 149 MAX:  -4.255319149    AVG:  -4.255319149
EPOCH: 150 MAX:  -4.255319149    AVG:  -4.255319149
EPOCH: 151 MAX:  -4.255319149    AVG:  -4.255319149
EPOCH: 152 MAX:  -4.255319149    AVG:  -4.255319149
EPOCH: 153 MAX:  -4.255319149    AVG:  -4.255319149
EPOCH: 154 MAX:  -4.255319149    AVG:  -4.255319149
EPOCH: 155 MAX:  -4.255319149    AVG:  -4.255319149
EPOCH: 156 MAX:  -4.255319149    AVG:  -4.255319149
EPOCH: 157 MAX:  -4.255319149    AVG:  -4.255319149
EPOCH: 158 MAX:  -4.255319149    AVG:  -4.255319149
EPOCH: 159 MAX:  -4.255319149    AVG:  -4.255319149
EPOCH: 160 MAX:  -4.255319149    AVG:  -4.255319149
EPOCH: 161 MAX:  -4.255319149    AVG:  -4.255319149
EPOCH: 162 MAX:  -4.255319149    AVG:  -4.255319149
EPOCH: 163 MAX:  -4.255319149    AVG:  -4.255319149
EPOCH: 164 MAX:  -4.255319149    AVG:  -4.255319149
EPOCH: 165 MAX:  -4.255319149    AVG:  -4.255319149
EPOCH: 166 MAX:  -4.255319149    AVG:  -4.255319149
EPOCH: 167 MAX:  -4.255319149    AVG:  -4.255319149
EPOCH: 168 MAX:  -4.255319149    AVG:  -4.255319149
EPOCH: 169 MAX:  -4.255319149    AVG:  -4.255319149
EPOCH: 170 MAX:  -4.255319149    AVG:  -4.255319149
EPOCH: 171 MAX:  -4.255319149    AVG:  -4.255319149
EPOCH: 172 MAX:  -4.255319149    AVG:  -4.255319149
EPOCH: 173 MAX:  -4.255319149    AVG:  -4.255319149
EPOCH: 174 MAX:  -4.255319149    AVG:  -4.255319149
EPOCH: 175 MAX:  -4.255319149    AVG:  -4.255319149
EPOCH: 176 MAX:  -4.255319149    AVG:  -4.255319149
EPOCH: 177 MAX:  -4.255319149    AVG:  -4.255319149
EPOCH: 178 MAX:  -4.255319149    AVG:  -4.255319149
EPOCH: 179 MAX:  -4.255319149    AVG:  -4.255319149
EPOCH: 180 MAX:  -4.255319149    AVG:  -4.255319149
EPOCH: 181 MAX:  -4.255319149    AVG:  -4.255319149
EPOCH: 182 MAX:  -4.255319149    AVG:  -4.255319149
EPOCH: 183 MAX:  -4.255319149    AVG:  -4.255319149
EPOCH: 184 MAX:  -4.255319149    AVG:  -4.255319149
HELPER:  ....
EPOCH: 185 MAX:  -4.255319149    AVG:  -4.255319149
EPOCH: 186 MAX:  -4.255319149    AVG:  -4.255319149
EPOCH: 187 MAX:  -4.255319149    AVG:  -4.255319149
EPOCH: 188 MAX:  -4.255319149    AVG:  -4.255319149
EPOCH: 189 MAX:  -4.255319149    AVG:  -4.255319149
EPOCH: 190 MAX:  -4.255319149    AVG:  -4.255319149
EPOCH: 191 MAX:  -4.255319149    AVG:  -4.255319149
EPOCH: 192 MAX:  -4.255319149    AVG:  -4.255319149
EPOCH: 193 MAX:  -4.255319149    AVG:  -4.255319149
EPOCH: 194 MAX:  -4.255319149    AVG:  -4.255319149
EPOCH: 195 MAX:  -4.255319149    AVG:  -4.255319149
EPOCH: 196 MAX:  -4.255319149    AVG:  -4.255319149
EPOCH: 197 MAX:  -4.255319149    AVG:  -4.255319149
EPOCH: 198 MAX:  -4.255319149    AVG:  -4.255319149
EPOCH: 199 MAX:  -4.255319149    AVG:  -4.255319149
EPOCH: 200 MAX:  -4.255319149    AVG:  -4.255319149
EPOCH: 201 MAX:  -4.255319149    AVG:  -4.255319149
EPOCH: 202 MAX:  -4.255319149    AVG:  -4.255319149
EPOCH: 203 MAX:  -4.255319149    AVG:  -4.255319149
EPOCH: 204 MAX:  -4.255319149    AVG:  -4.255319149
EPOCH: 205 MAX:  -4.255319149    AVG:  -4.255319149
EPOCH: 206 MAX:  -4.255319149    AVG:  -4.255319149
EPOCH: 207 MAX:  -4.255319149    AVG:  -4.255319149
EPOCH: 208 MAX:  -4.255319149    AVG:  -4.255319149
EPOCH: 209 MAX:  -4.255319149    AVG:  -4.255319149
EPOCH: 210 MAX:  -4.255319149    AVG:  -4.255319149
EPOCH: 211 MAX:  -4.255319149    AVG:  -4.255319149
EPOCH: 212 MAX:  -4.255319149    AVG:  -4.255319149
EPOCH: 213 MAX:  -4.255319149    AVG:  -4.255319149
EPOCH: 214 MAX:  -4.255319149    AVG:  -4.255319149
EPOCH: 215 MAX:  -4.255319149    AVG:  -4.255319149
EPOCH: 216 MAX:  -4.255319149    AVG:  -4.255319149
EPOCH: 217 MAX:  -4.255319149    AVG:  -4.255319149
EPOCH: 218 MAX:  -4.255319149    AVG:  -4.255319149
EPOCH: 219 MAX:  -4.255319149    AVG:  -4.255319149
EPOCH: 220 MAX:  -4.255319149    AVG:  -4.255319149
EPOCH: 221 MAX:  -4.255319149    AVG:  -4.255319149
EPOCH: 222 MAX:  -4.255319149    AVG:  -4.255319149
EPOCH: 223 MAX:  -4.255319149    AVG:  -4.255319149
EPOCH: 224 MAX:  -4.255319149    AVG:  -4.255319149
EPOCH: 225 MAX:  -4.255319149    AVG:  -4.255319149
EPOCH: 226 MAX:  -4.255319149    AVG:  -4.255319149
EPOCH: 227 MAX:  -4.255319149    AVG:  -4.255319149
EPOCH: 228 MAX:  -4.255319149    AVG:  -4.255319149
EPOCH: 229 MAX:  -4.255319149    AVG:  -4.255319149
EPOCH: 230 MAX:  -4.255319149    AVG:  -4.255319149
EPOCH: 231 MAX:  -4.255319149    AVG:  -4.255319149
EPOCH: 232 MAX:  -4.255319149    AVG:  -4.255319149
EPOCH: 233 MAX:  -4.255319149    AVG:  -4.255319149
EPOCH: 234 MAX:  -4.255319149    AVG:  -4.255319149
EPOCH: 235 MAX:  -4.255319149    AVG:  -4.255319149
EPOCH: 236 MAX:  -4.255319149    AVG:  -4.255319149
EPOCH: 237 MAX:  -4.255319149    AVG:  -4.255319149
EPOCH: 238 MAX:  -4.255319149    AVG:  -4.255319149
EPOCH: 239 MAX:  -4.255319149    AVG:  -4.255319149
EPOCH: 240 MAX:  -4.255319149    AVG:  -4.255319149
EPOCH: 241 MAX:  -4.255319149    AVG:  -4.255319149
EPOCH: 242 MAX:  -4.255319149    AVG:  -4.255319149
EPOCH: 243 MAX:  -4.255319149    AVG:  -4.255319149
EPOCH: 244 MAX:  -4.255319149    AVG:  -4.255319149
EPOCH: 245 MAX:  -4.255319149    AVG:  -4.255319149
EPOCH: 246 MAX:  -4.255319149    AVG:  -4.255319149
EPOCH: 247 MAX:  -4.255319149    AVG:  -4.255319149
EPOCH: 248 MAX:  -4.255319149    AVG:  -4.255319149
EPOCH: 249 MAX:  -4.255319149    AVG:  -4.255319149
EPOCH: 250 MAX:  -4.255319149    AVG:  -4.255319149
EPOCH: 251 MAX:  -4.255319149    AVG:  -4.255319149
EPOCH: 252 MAX:  -4.255319149    AVG:  -4.255319149
EPOCH: 253 MAX:  -4.255319149    AVG:  -4.255319149
EPOCH: 254 MAX:  -4.255319149    AVG:  -4.255319149
HELPER:  ....
---------------------------
CH: 0 189.000000000
CH: 1 189.000000000
CH: 2 139.000000000
CH: 3 137.000000000
CH: 4 137.000000000
CH: 5 189.000000000
CH: 6 189.000000000
CH: 7 123.000000000
CH: 8 117.000000000
CH: 9 123.000000000
CH: 10 189.000000000
CH: 11 139.000000000
CH: 12 189.000000000
CH: 13 139.000000000
CH: 14 137.000000000
CH: 15 139.000000000
CH: 16 189.000000000
CH: 17 189.000000000
CH: 18 123.000000000
CH: 19 137.000000000
CH: 20 137.000000000
CH: 21 189.000000000
CH: 22 139.000000000
CH: 23 117.000000000
CH: 24 189.000000000
CH: 25 139.000000000
CH: 26 137.000000000
CH: 27 139.000000000
CH: 28 189.000000000
CH: 29 189.000000000
CH: 30 123.000000000
CH: 31 137.000000000
CH: 32 137.000000000
CH: 33 189.000000000
CH: 34 139.000000000
CH: 35 189.000000000
CH: 36 139.000000000
CH: 37 137.000000000
CH: 38 139.000000000
CH: 39 189.000000000
CH: 40 189.000000000
CH: 41 123.000000000
CH: 42 137.000000000
CH: 43 137.000000000
CH: 44 189.000000000
CH: 45 139.000000000
CH: 46 117.000000000





END ------------------------
ERROR: 0.000000000
NUM OF COLORS USED = 6
